=====UNKNOWN=====
% time elapsed: 1799.93 s
%%%mzn-stat: initTime=0.134264561
%%%mzn-stat: nodes=5735337
%%%mzn-stat: restarts=8238
%%%mzn-stat: peakDepth=1186
%%%mzn-stat: solveTime=1793.806766351
%%%mzn-stat: variables=2319
%%%mzn-stat: propagators=13113
%%%mzn-stat: failures=2791454
%%%mzn-stat: propagations=1773658578
%%%mzn-stat: nogoods=2791454
%%%mzn-stat: AverageConflictSize=24.72528689349708
%%%mzn-stat: NumUnitNogoodsLearned=120
%%%mzn-stat: AverageLearnedNogoodLength=58.703476037935786
%%%mzn-stat: AverageBacktrackAmount=0
%%%mzn-stat: AverageLbd=14.175396048081035
%%%mzn-stat-end
